width = 5;
height = 5;

grid = 
[| true,true,true,true,true
| false,true,true,true,true
| true,true,false,true,true
| false,true,true,false,true
| true,true,true,true,true
|];
number_of_clues = 13;
start_rows = [1,2,3,3,4,5,1,3,1,1,4,1,1];
start_cols = [1,2,1,4,2,1,1,1,2,3,3,4,5];
is_vertical = [false,false,false,false,false,false,true,true,true,true,true,true,true];
lens = [5,4,2,2,2,5,1,1,5,2,2,3,5];
